p cnf 407 1861
c p weight 166 0 0
c p weight -166 1 0
c p weight 167 1 0
c p weight -167 1 0
c p weight 404 -1 0
c p weight -404 1 0
c p weight 407 0.5 0
407 0
-161 0
-159 0
-157 0
-155 0
-153 0
-151 0
-149 0
-147 0
-145 0
-143 0
-141 0
-139 0
-137 0
-135 0
-133 0
-131 0
-129 0
-127 0
-125 0
-123 0
-121 0
-119 0
-117 0
-115 0
-113 0
-111 0
-109 0
-107 0
-105 0
-103 0
-101 0
-99 0
-97 0
-95 0
-93 0
-91 0
-89 0
-87 0
-85 0
-83 0
-81 0
-79 0
-77 0
-75 0
-73 0
-71 0
-69 0
-67 0
-65 0
-63 0
-61 0
-59 0
-57 0
-55 0
-53 0
-51 0
-49 0
-47 0
-45 0
-43 0
-41 0
-39 0
-37 0
-35 0
-33 0
-31 0
-29 0
-27 0
-25 0
-23 0
-21 0
-19 0
-17 0
-15 0
-13 0
-11 0
-9 0
-7 0
-5 0
-3 0
-1 0
162 -161 159 0
162 -161 160 0
-162 161 159 0
-162 161 160 0
162 161 -159 -160 0
-162 -161 -159 -160 0
163 159 -160 0
163 -159 160 0
-163 159 160 0
-163 -159 -160 0
164 165 -162 0
164 -162 163 0
-164 165 162 0
-164 162 163 0
164 -162 -159 0
-164 162 -159 0
164 -165 162 159 -163 0
-164 -165 -162 159 -163 0
165 -159 163 0
-165 159 163 0
-166 163 0
165 -166 -159 0
-165 -166 159 0
165 166 159 -163 0
-165 166 -159 -163 0
-167 163 0
165 -167 159 0
-165 -167 -159 0
165 167 -159 -163 0
-165 167 159 -163 0
168 -164 165 0
168 -164 163 0
-168 164 165 0
-168 164 163 0
168 164 -165 -163 0
-168 -164 -165 -163 0
169 165 -163 0
169 -165 163 0
-169 165 163 0
-169 -165 -163 0
170 -168 165 0
170 -168 158 0
-170 168 165 0
-170 168 158 0
170 -168 157 -169 0
170 -168 -157 169 0
-170 168 157 -169 0
-170 168 -157 169 0
170 168 -165 157 169 -158 0
170 168 -165 -157 -169 -158 0
-170 -168 -165 157 169 -158 0
-170 -168 -165 -157 -169 -158 0
172 165 -157 0
172 -165 157 0
-172 165 157 0
-172 -165 -157 0
171 169 -158 0
171 -169 158 0
-171 169 158 0
-171 -169 -158 0
173 -170 172 0
173 -170 156 0
-173 170 172 0
-173 170 156 0
173 -170 155 -158 0
173 -170 -155 158 0
-173 170 155 -158 0
-173 170 -155 158 0
173 170 -172 155 158 -156 0
173 170 -172 -155 -158 -156 0
-173 -170 -172 155 158 -156 0
-173 -170 -172 -155 -158 -156 0
175 172 -155 0
175 -172 155 0
-175 172 155 0
-175 -172 -155 0
174 158 -156 0
174 -158 156 0
-174 158 156 0
-174 -158 -156 0
176 -173 175 0
176 -173 154 0
-176 173 175 0
-176 173 154 0
176 -173 153 -156 0
176 -173 -153 156 0
-176 173 153 -156 0
-176 173 -153 156 0
176 173 -175 153 156 -154 0
176 173 -175 -153 -156 -154 0
-176 -173 -175 153 156 -154 0
-176 -173 -175 -153 -156 -154 0
178 175 -153 0
178 -175 153 0
-178 175 153 0
-178 -175 -153 0
177 156 -154 0
177 -156 154 0
-177 156 154 0
-177 -156 -154 0
179 -176 178 0
179 -176 152 0
-179 176 178 0
-179 176 152 0
179 -176 151 -154 0
179 -176 -151 154 0
-179 176 151 -154 0
-179 176 -151 154 0
179 176 -178 151 154 -152 0
179 176 -178 -151 -154 -152 0
-179 -176 -178 151 154 -152 0
-179 -176 -178 -151 -154 -152 0
181 178 -151 0
181 -178 151 0
-181 178 151 0
-181 -178 -151 0
180 154 -152 0
180 -154 152 0
-180 154 152 0
-180 -154 -152 0
182 -179 181 0
182 -179 150 0
-182 179 181 0
-182 179 150 0
182 -179 149 -152 0
182 -179 -149 152 0
-182 179 149 -152 0
-182 179 -149 152 0
182 179 -181 149 152 -150 0
182 179 -181 -149 -152 -150 0
-182 -179 -181 149 152 -150 0
-182 -179 -181 -149 -152 -150 0
184 181 -149 0
184 -181 149 0
-184 181 149 0
-184 -181 -149 0
183 152 -150 0
183 -152 150 0
-183 152 150 0
-183 -152 -150 0
185 -182 184 0
185 -182 148 0
-185 182 184 0
-185 182 148 0
185 -182 147 -150 0
185 -182 -147 150 0
-185 182 147 -150 0
-185 182 -147 150 0
185 182 -184 147 150 -148 0
185 182 -184 -147 -150 -148 0
-185 -182 -184 147 150 -148 0
-185 -182 -184 -147 -150 -148 0
187 184 -147 0
187 -184 147 0
-187 184 147 0
-187 -184 -147 0
186 150 -148 0
186 -150 148 0
-186 150 148 0
-186 -150 -148 0
188 -185 187 0
188 -185 146 0
-188 185 187 0
-188 185 146 0
188 -185 145 -148 0
188 -185 -145 148 0
-188 185 145 -148 0
-188 185 -145 148 0
188 185 -187 145 148 -146 0
188 185 -187 -145 -148 -146 0
-188 -185 -187 145 148 -146 0
-188 -185 -187 -145 -148 -146 0
190 187 -145 0
190 -187 145 0
-190 187 145 0
-190 -187 -145 0
189 148 -146 0
189 -148 146 0
-189 148 146 0
-189 -148 -146 0
191 -188 190 0
191 -188 144 0
-191 188 190 0
-191 188 144 0
191 -188 143 -146 0
191 -188 -143 146 0
-191 188 143 -146 0
-191 188 -143 146 0
191 188 -190 143 146 -144 0
191 188 -190 -143 -146 -144 0
-191 -188 -190 143 146 -144 0
-191 -188 -190 -143 -146 -144 0
193 190 -143 0
193 -190 143 0
-193 190 143 0
-193 -190 -143 0
192 146 -144 0
192 -146 144 0
-192 146 144 0
-192 -146 -144 0
194 -191 193 0
194 -191 142 0
-194 191 193 0
-194 191 142 0
194 -191 141 -144 0
194 -191 -141 144 0
-194 191 141 -144 0
-194 191 -141 144 0
194 191 -193 141 144 -142 0
194 191 -193 -141 -144 -142 0
-194 -191 -193 141 144 -142 0
-194 -191 -193 -141 -144 -142 0
196 193 -141 0
196 -193 141 0
-196 193 141 0
-196 -193 -141 0
195 144 -142 0
195 -144 142 0
-195 144 142 0
-195 -144 -142 0
197 -194 196 0
197 -194 140 0
-197 194 196 0
-197 194 140 0
197 -194 139 -142 0
197 -194 -139 142 0
-197 194 139 -142 0
-197 194 -139 142 0
197 194 -196 139 142 -140 0
197 194 -196 -139 -142 -140 0
-197 -194 -196 139 142 -140 0
-197 -194 -196 -139 -142 -140 0
199 196 -139 0
199 -196 139 0
-199 196 139 0
-199 -196 -139 0
198 142 -140 0
198 -142 140 0
-198 142 140 0
-198 -142 -140 0
200 -197 199 0
200 -197 138 0
-200 197 199 0
-200 197 138 0
200 -197 137 -140 0
200 -197 -137 140 0
-200 197 137 -140 0
-200 197 -137 140 0
200 197 -199 137 140 -138 0
200 197 -199 -137 -140 -138 0
-200 -197 -199 137 140 -138 0
-200 -197 -199 -137 -140 -138 0
202 199 -137 0
202 -199 137 0
-202 199 137 0
-202 -199 -137 0
201 140 -138 0
201 -140 138 0
-201 140 138 0
-201 -140 -138 0
203 -200 202 0
203 -200 136 0
-203 200 202 0
-203 200 136 0
203 -200 135 -138 0
203 -200 -135 138 0
-203 200 135 -138 0
-203 200 -135 138 0
203 200 -202 135 138 -136 0
203 200 -202 -135 -138 -136 0
-203 -200 -202 135 138 -136 0
-203 -200 -202 -135 -138 -136 0
205 202 -135 0
205 -202 135 0
-205 202 135 0
-205 -202 -135 0
204 138 -136 0
204 -138 136 0
-204 138 136 0
-204 -138 -136 0
206 -203 205 0
206 -203 134 0
-206 203 205 0
-206 203 134 0
206 -203 133 -136 0
206 -203 -133 136 0
-206 203 133 -136 0
-206 203 -133 136 0
206 203 -205 133 136 -134 0
206 203 -205 -133 -136 -134 0
-206 -203 -205 133 136 -134 0
-206 -203 -205 -133 -136 -134 0
208 205 -133 0
208 -205 133 0
-208 205 133 0
-208 -205 -133 0
207 136 -134 0
207 -136 134 0
-207 136 134 0
-207 -136 -134 0
209 -206 208 0
209 -206 132 0
-209 206 208 0
-209 206 132 0
209 -206 131 -134 0
209 -206 -131 134 0
-209 206 131 -134 0
-209 206 -131 134 0
209 206 -208 131 134 -132 0
209 206 -208 -131 -134 -132 0
-209 -206 -208 131 134 -132 0
-209 -206 -208 -131 -134 -132 0
211 208 -131 0
211 -208 131 0
-211 208 131 0
-211 -208 -131 0
210 134 -132 0
210 -134 132 0
-210 134 132 0
-210 -134 -132 0
212 -209 211 0
212 -209 130 0
-212 209 211 0
-212 209 130 0
212 -209 129 -132 0
212 -209 -129 132 0
-212 209 129 -132 0
-212 209 -129 132 0
212 209 -211 129 132 -130 0
212 209 -211 -129 -132 -130 0
-212 -209 -211 129 132 -130 0
-212 -209 -211 -129 -132 -130 0
214 211 -129 0
214 -211 129 0
-214 211 129 0
-214 -211 -129 0
213 132 -130 0
213 -132 130 0
-213 132 130 0
-213 -132 -130 0
215 -212 214 0
215 -212 128 0
-215 212 214 0
-215 212 128 0
215 -212 127 -130 0
215 -212 -127 130 0
-215 212 127 -130 0
-215 212 -127 130 0
215 212 -214 127 130 -128 0
215 212 -214 -127 -130 -128 0
-215 -212 -214 127 130 -128 0
-215 -212 -214 -127 -130 -128 0
217 214 -127 0
217 -214 127 0
-217 214 127 0
-217 -214 -127 0
216 130 -128 0
216 -130 128 0
-216 130 128 0
-216 -130 -128 0
218 -215 217 0
218 -215 126 0
-218 215 217 0
-218 215 126 0
218 -215 125 -128 0
218 -215 -125 128 0
-218 215 125 -128 0
-218 215 -125 128 0
218 215 -217 125 128 -126 0
218 215 -217 -125 -128 -126 0
-218 -215 -217 125 128 -126 0
-218 -215 -217 -125 -128 -126 0
220 217 -125 0
220 -217 125 0
-220 217 125 0
-220 -217 -125 0
219 128 -126 0
219 -128 126 0
-219 128 126 0
-219 -128 -126 0
221 -218 220 0
221 -218 124 0
-221 218 220 0
-221 218 124 0
221 -218 123 -126 0
221 -218 -123 126 0
-221 218 123 -126 0
-221 218 -123 126 0
221 218 -220 123 126 -124 0
221 218 -220 -123 -126 -124 0
-221 -218 -220 123 126 -124 0
-221 -218 -220 -123 -126 -124 0
223 220 -123 0
223 -220 123 0
-223 220 123 0
-223 -220 -123 0
222 126 -124 0
222 -126 124 0
-222 126 124 0
-222 -126 -124 0
224 -221 223 0
224 -221 122 0
-224 221 223 0
-224 221 122 0
224 -221 121 -124 0
224 -221 -121 124 0
-224 221 121 -124 0
-224 221 -121 124 0
224 221 -223 121 124 -122 0
224 221 -223 -121 -124 -122 0
-224 -221 -223 121 124 -122 0
-224 -221 -223 -121 -124 -122 0
226 223 -121 0
226 -223 121 0
-226 223 121 0
-226 -223 -121 0
225 124 -122 0
225 -124 122 0
-225 124 122 0
-225 -124 -122 0
227 -224 226 0
227 -224 120 0
-227 224 226 0
-227 224 120 0
227 -224 119 -122 0
227 -224 -119 122 0
-227 224 119 -122 0
-227 224 -119 122 0
227 224 -226 119 122 -120 0
227 224 -226 -119 -122 -120 0
-227 -224 -226 119 122 -120 0
-227 -224 -226 -119 -122 -120 0
229 226 -119 0
229 -226 119 0
-229 226 119 0
-229 -226 -119 0
228 122 -120 0
228 -122 120 0
-228 122 120 0
-228 -122 -120 0
230 -227 229 0
230 -227 118 0
-230 227 229 0
-230 227 118 0
230 -227 117 -120 0
230 -227 -117 120 0
-230 227 117 -120 0
-230 227 -117 120 0
230 227 -229 117 120 -118 0
230 227 -229 -117 -120 -118 0
-230 -227 -229 117 120 -118 0
-230 -227 -229 -117 -120 -118 0
232 229 -117 0
232 -229 117 0
-232 229 117 0
-232 -229 -117 0
231 120 -118 0
231 -120 118 0
-231 120 118 0
-231 -120 -118 0
233 -230 232 0
233 -230 116 0
-233 230 232 0
-233 230 116 0
233 -230 115 -118 0
233 -230 -115 118 0
-233 230 115 -118 0
-233 230 -115 118 0
233 230 -232 115 118 -116 0
233 230 -232 -115 -118 -116 0
-233 -230 -232 115 118 -116 0
-233 -230 -232 -115 -118 -116 0
235 232 -115 0
235 -232 115 0
-235 232 115 0
-235 -232 -115 0
234 118 -116 0
234 -118 116 0
-234 118 116 0
-234 -118 -116 0
236 -233 235 0
236 -233 114 0
-236 233 235 0
-236 233 114 0
236 -233 113 -116 0
236 -233 -113 116 0
-236 233 113 -116 0
-236 233 -113 116 0
236 233 -235 113 116 -114 0
236 233 -235 -113 -116 -114 0
-236 -233 -235 113 116 -114 0
-236 -233 -235 -113 -116 -114 0
238 235 -113 0
238 -235 113 0
-238 235 113 0
-238 -235 -113 0
237 116 -114 0
237 -116 114 0
-237 116 114 0
-237 -116 -114 0
239 -236 238 0
239 -236 112 0
-239 236 238 0
-239 236 112 0
239 -236 111 -114 0
239 -236 -111 114 0
-239 236 111 -114 0
-239 236 -111 114 0
239 236 -238 111 114 -112 0
239 236 -238 -111 -114 -112 0
-239 -236 -238 111 114 -112 0
-239 -236 -238 -111 -114 -112 0
241 238 -111 0
241 -238 111 0
-241 238 111 0
-241 -238 -111 0
240 114 -112 0
240 -114 112 0
-240 114 112 0
-240 -114 -112 0
242 -239 241 0
242 -239 110 0
-242 239 241 0
-242 239 110 0
242 -239 109 -112 0
242 -239 -109 112 0
-242 239 109 -112 0
-242 239 -109 112 0
242 239 -241 109 112 -110 0
242 239 -241 -109 -112 -110 0
-242 -239 -241 109 112 -110 0
-242 -239 -241 -109 -112 -110 0
244 241 -109 0
244 -241 109 0
-244 241 109 0
-244 -241 -109 0
243 112 -110 0
243 -112 110 0
-243 112 110 0
-243 -112 -110 0
245 -242 244 0
245 -242 108 0
-245 242 244 0
-245 242 108 0
245 -242 107 -110 0
245 -242 -107 110 0
-245 242 107 -110 0
-245 242 -107 110 0
245 242 -244 107 110 -108 0
245 242 -244 -107 -110 -108 0
-245 -242 -244 107 110 -108 0
-245 -242 -244 -107 -110 -108 0
247 244 -107 0
247 -244 107 0
-247 244 107 0
-247 -244 -107 0
246 110 -108 0
246 -110 108 0
-246 110 108 0
-246 -110 -108 0
248 -245 247 0
248 -245 106 0
-248 245 247 0
-248 245 106 0
248 -245 105 -108 0
248 -245 -105 108 0
-248 245 105 -108 0
-248 245 -105 108 0
248 245 -247 105 108 -106 0
248 245 -247 -105 -108 -106 0
-248 -245 -247 105 108 -106 0
-248 -245 -247 -105 -108 -106 0
250 247 -105 0
250 -247 105 0
-250 247 105 0
-250 -247 -105 0
249 108 -106 0
249 -108 106 0
-249 108 106 0
-249 -108 -106 0
251 -248 250 0
251 -248 104 0
-251 248 250 0
-251 248 104 0
251 -248 103 -106 0
251 -248 -103 106 0
-251 248 103 -106 0
-251 248 -103 106 0
251 248 -250 103 106 -104 0
251 248 -250 -103 -106 -104 0
-251 -248 -250 103 106 -104 0
-251 -248 -250 -103 -106 -104 0
253 250 -103 0
253 -250 103 0
-253 250 103 0
-253 -250 -103 0
252 106 -104 0
252 -106 104 0
-252 106 104 0
-252 -106 -104 0
254 -251 253 0
254 -251 102 0
-254 251 253 0
-254 251 102 0
254 -251 101 -104 0
254 -251 -101 104 0
-254 251 101 -104 0
-254 251 -101 104 0
254 251 -253 101 104 -102 0
254 251 -253 -101 -104 -102 0
-254 -251 -253 101 104 -102 0
-254 -251 -253 -101 -104 -102 0
256 253 -101 0
256 -253 101 0
-256 253 101 0
-256 -253 -101 0
255 104 -102 0
255 -104 102 0
-255 104 102 0
-255 -104 -102 0
257 -254 256 0
257 -254 100 0
-257 254 256 0
-257 254 100 0
257 -254 99 -102 0
257 -254 -99 102 0
-257 254 99 -102 0
-257 254 -99 102 0
257 254 -256 99 102 -100 0
257 254 -256 -99 -102 -100 0
-257 -254 -256 99 102 -100 0
-257 -254 -256 -99 -102 -100 0
259 256 -99 0
259 -256 99 0
-259 256 99 0
-259 -256 -99 0
258 102 -100 0
258 -102 100 0
-258 102 100 0
-258 -102 -100 0
260 -257 259 0
260 -257 98 0
-260 257 259 0
-260 257 98 0
260 -257 97 -100 0
260 -257 -97 100 0
-260 257 97 -100 0
-260 257 -97 100 0
260 257 -259 97 100 -98 0
260 257 -259 -97 -100 -98 0
-260 -257 -259 97 100 -98 0
-260 -257 -259 -97 -100 -98 0
262 259 -97 0
262 -259 97 0
-262 259 97 0
-262 -259 -97 0
261 100 -98 0
261 -100 98 0
-261 100 98 0
-261 -100 -98 0
263 -260 262 0
263 -260 96 0
-263 260 262 0
-263 260 96 0
263 -260 95 -98 0
263 -260 -95 98 0
-263 260 95 -98 0
-263 260 -95 98 0
263 260 -262 95 98 -96 0
263 260 -262 -95 -98 -96 0
-263 -260 -262 95 98 -96 0
-263 -260 -262 -95 -98 -96 0
265 262 -95 0
265 -262 95 0
-265 262 95 0
-265 -262 -95 0
264 98 -96 0
264 -98 96 0
-264 98 96 0
-264 -98 -96 0
266 -263 265 0
266 -263 94 0
-266 263 265 0
-266 263 94 0
266 -263 93 -96 0
266 -263 -93 96 0
-266 263 93 -96 0
-266 263 -93 96 0
266 263 -265 93 96 -94 0
266 263 -265 -93 -96 -94 0
-266 -263 -265 93 96 -94 0
-266 -263 -265 -93 -96 -94 0
268 265 -93 0
268 -265 93 0
-268 265 93 0
-268 -265 -93 0
267 96 -94 0
267 -96 94 0
-267 96 94 0
-267 -96 -94 0
269 -266 268 0
269 -266 92 0
-269 266 268 0
-269 266 92 0
269 -266 91 -94 0
269 -266 -91 94 0
-269 266 91 -94 0
-269 266 -91 94 0
269 266 -268 91 94 -92 0
269 266 -268 -91 -94 -92 0
-269 -266 -268 91 94 -92 0
-269 -266 -268 -91 -94 -92 0
271 268 -91 0
271 -268 91 0
-271 268 91 0
-271 -268 -91 0
270 94 -92 0
270 -94 92 0
-270 94 92 0
-270 -94 -92 0
272 -269 271 0
272 -269 90 0
-272 269 271 0
-272 269 90 0
272 -269 89 -92 0
272 -269 -89 92 0
-272 269 89 -92 0
-272 269 -89 92 0
272 269 -271 89 92 -90 0
272 269 -271 -89 -92 -90 0
-272 -269 -271 89 92 -90 0
-272 -269 -271 -89 -92 -90 0
274 271 -89 0
274 -271 89 0
-274 271 89 0
-274 -271 -89 0
273 92 -90 0
273 -92 90 0
-273 92 90 0
-273 -92 -90 0
275 -272 274 0
275 -272 88 0
-275 272 274 0
-275 272 88 0
275 -272 87 -90 0
275 -272 -87 90 0
-275 272 87 -90 0
-275 272 -87 90 0
275 272 -274 87 90 -88 0
275 272 -274 -87 -90 -88 0
-275 -272 -274 87 90 -88 0
-275 -272 -274 -87 -90 -88 0
277 274 -87 0
277 -274 87 0
-277 274 87 0
-277 -274 -87 0
276 90 -88 0
276 -90 88 0
-276 90 88 0
-276 -90 -88 0
278 -275 277 0
278 -275 86 0
-278 275 277 0
-278 275 86 0
278 -275 85 -88 0
278 -275 -85 88 0
-278 275 85 -88 0
-278 275 -85 88 0
278 275 -277 85 88 -86 0
278 275 -277 -85 -88 -86 0
-278 -275 -277 85 88 -86 0
-278 -275 -277 -85 -88 -86 0
280 277 -85 0
280 -277 85 0
-280 277 85 0
-280 -277 -85 0
279 88 -86 0
279 -88 86 0
-279 88 86 0
-279 -88 -86 0
281 -278 280 0
281 -278 84 0
-281 278 280 0
-281 278 84 0
281 -278 83 -86 0
281 -278 -83 86 0
-281 278 83 -86 0
-281 278 -83 86 0
281 278 -280 83 86 -84 0
281 278 -280 -83 -86 -84 0
-281 -278 -280 83 86 -84 0
-281 -278 -280 -83 -86 -84 0
283 280 -83 0
283 -280 83 0
-283 280 83 0
-283 -280 -83 0
282 86 -84 0
282 -86 84 0
-282 86 84 0
-282 -86 -84 0
284 -281 283 0
284 -281 82 0
-284 281 283 0
-284 281 82 0
284 -281 81 -84 0
284 -281 -81 84 0
-284 281 81 -84 0
-284 281 -81 84 0
284 281 -283 81 84 -82 0
284 281 -283 -81 -84 -82 0
-284 -281 -283 81 84 -82 0
-284 -281 -283 -81 -84 -82 0
286 283 -81 0
286 -283 81 0
-286 283 81 0
-286 -283 -81 0
285 84 -82 0
285 -84 82 0
-285 84 82 0
-285 -84 -82 0
287 -284 286 0
287 -284 80 0
-287 284 286 0
-287 284 80 0
287 -284 79 -82 0
287 -284 -79 82 0
-287 284 79 -82 0
-287 284 -79 82 0
287 284 -286 79 82 -80 0
287 284 -286 -79 -82 -80 0
-287 -284 -286 79 82 -80 0
-287 -284 -286 -79 -82 -80 0
289 286 -79 0
289 -286 79 0
-289 286 79 0
-289 -286 -79 0
288 82 -80 0
288 -82 80 0
-288 82 80 0
-288 -82 -80 0
290 -287 289 0
290 -287 78 0
-290 287 289 0
-290 287 78 0
290 -287 77 -80 0
290 -287 -77 80 0
-290 287 77 -80 0
-290 287 -77 80 0
290 287 -289 77 80 -78 0
290 287 -289 -77 -80 -78 0
-290 -287 -289 77 80 -78 0
-290 -287 -289 -77 -80 -78 0
292 289 -77 0
292 -289 77 0
-292 289 77 0
-292 -289 -77 0
291 80 -78 0
291 -80 78 0
-291 80 78 0
-291 -80 -78 0
293 -290 292 0
293 -290 76 0
-293 290 292 0
-293 290 76 0
293 -290 75 -78 0
293 -290 -75 78 0
-293 290 75 -78 0
-293 290 -75 78 0
293 290 -292 75 78 -76 0
293 290 -292 -75 -78 -76 0
-293 -290 -292 75 78 -76 0
-293 -290 -292 -75 -78 -76 0
295 292 -75 0
295 -292 75 0
-295 292 75 0
-295 -292 -75 0
294 78 -76 0
294 -78 76 0
-294 78 76 0
-294 -78 -76 0
296 -293 295 0
296 -293 74 0
-296 293 295 0
-296 293 74 0
296 -293 73 -76 0
296 -293 -73 76 0
-296 293 73 -76 0
-296 293 -73 76 0
296 293 -295 73 76 -74 0
296 293 -295 -73 -76 -74 0
-296 -293 -295 73 76 -74 0
-296 -293 -295 -73 -76 -74 0
298 295 -73 0
298 -295 73 0
-298 295 73 0
-298 -295 -73 0
297 76 -74 0
297 -76 74 0
-297 76 74 0
-297 -76 -74 0
299 -296 298 0
299 -296 72 0
-299 296 298 0
-299 296 72 0
299 -296 71 -74 0
299 -296 -71 74 0
-299 296 71 -74 0
-299 296 -71 74 0
299 296 -298 71 74 -72 0
299 296 -298 -71 -74 -72 0
-299 -296 -298 71 74 -72 0
-299 -296 -298 -71 -74 -72 0
301 298 -71 0
301 -298 71 0
-301 298 71 0
-301 -298 -71 0
300 74 -72 0
300 -74 72 0
-300 74 72 0
-300 -74 -72 0
302 -299 301 0
302 -299 70 0
-302 299 301 0
-302 299 70 0
302 -299 69 -72 0
302 -299 -69 72 0
-302 299 69 -72 0
-302 299 -69 72 0
302 299 -301 69 72 -70 0
302 299 -301 -69 -72 -70 0
-302 -299 -301 69 72 -70 0
-302 -299 -301 -69 -72 -70 0
304 301 -69 0
304 -301 69 0
-304 301 69 0
-304 -301 -69 0
303 72 -70 0
303 -72 70 0
-303 72 70 0
-303 -72 -70 0
305 -302 304 0
305 -302 68 0
-305 302 304 0
-305 302 68 0
305 -302 67 -70 0
305 -302 -67 70 0
-305 302 67 -70 0
-305 302 -67 70 0
305 302 -304 67 70 -68 0
305 302 -304 -67 -70 -68 0
-305 -302 -304 67 70 -68 0
-305 -302 -304 -67 -70 -68 0
307 304 -67 0
307 -304 67 0
-307 304 67 0
-307 -304 -67 0
306 70 -68 0
306 -70 68 0
-306 70 68 0
-306 -70 -68 0
308 -305 307 0
308 -305 66 0
-308 305 307 0
-308 305 66 0
308 -305 65 -68 0
308 -305 -65 68 0
-308 305 65 -68 0
-308 305 -65 68 0
308 305 -307 65 68 -66 0
308 305 -307 -65 -68 -66 0
-308 -305 -307 65 68 -66 0
-308 -305 -307 -65 -68 -66 0
310 307 -65 0
310 -307 65 0
-310 307 65 0
-310 -307 -65 0
309 68 -66 0
309 -68 66 0
-309 68 66 0
-309 -68 -66 0
311 -308 310 0
311 -308 64 0
-311 308 310 0
-311 308 64 0
311 -308 63 -66 0
311 -308 -63 66 0
-311 308 63 -66 0
-311 308 -63 66 0
311 308 -310 63 66 -64 0
311 308 -310 -63 -66 -64 0
-311 -308 -310 63 66 -64 0
-311 -308 -310 -63 -66 -64 0
313 310 -63 0
313 -310 63 0
-313 310 63 0
-313 -310 -63 0
312 66 -64 0
312 -66 64 0
-312 66 64 0
-312 -66 -64 0
314 -311 313 0
314 -311 62 0
-314 311 313 0
-314 311 62 0
314 -311 61 -64 0
314 -311 -61 64 0
-314 311 61 -64 0
-314 311 -61 64 0
314 311 -313 61 64 -62 0
314 311 -313 -61 -64 -62 0
-314 -311 -313 61 64 -62 0
-314 -311 -313 -61 -64 -62 0
316 313 -61 0
316 -313 61 0
-316 313 61 0
-316 -313 -61 0
315 64 -62 0
315 -64 62 0
-315 64 62 0
-315 -64 -62 0
317 -314 316 0
317 -314 60 0
-317 314 316 0
-317 314 60 0
317 -314 59 -62 0
317 -314 -59 62 0
-317 314 59 -62 0
-317 314 -59 62 0
317 314 -316 59 62 -60 0
317 314 -316 -59 -62 -60 0
-317 -314 -316 59 62 -60 0
-317 -314 -316 -59 -62 -60 0
319 316 -59 0
319 -316 59 0
-319 316 59 0
-319 -316 -59 0
318 62 -60 0
318 -62 60 0
-318 62 60 0
-318 -62 -60 0
320 -317 319 0
320 -317 58 0
-320 317 319 0
-320 317 58 0
320 -317 57 -60 0
320 -317 -57 60 0
-320 317 57 -60 0
-320 317 -57 60 0
320 317 -319 57 60 -58 0
320 317 -319 -57 -60 -58 0
-320 -317 -319 57 60 -58 0
-320 -317 -319 -57 -60 -58 0
322 319 -57 0
322 -319 57 0
-322 319 57 0
-322 -319 -57 0
321 60 -58 0
321 -60 58 0
-321 60 58 0
-321 -60 -58 0
323 -320 322 0
323 -320 56 0
-323 320 322 0
-323 320 56 0
323 -320 55 -58 0
323 -320 -55 58 0
-323 320 55 -58 0
-323 320 -55 58 0
323 320 -322 55 58 -56 0
323 320 -322 -55 -58 -56 0
-323 -320 -322 55 58 -56 0
-323 -320 -322 -55 -58 -56 0
325 322 -55 0
325 -322 55 0
-325 322 55 0
-325 -322 -55 0
324 58 -56 0
324 -58 56 0
-324 58 56 0
-324 -58 -56 0
326 -323 325 0
326 -323 54 0
-326 323 325 0
-326 323 54 0
326 -323 53 -56 0
326 -323 -53 56 0
-326 323 53 -56 0
-326 323 -53 56 0
326 323 -325 53 56 -54 0
326 323 -325 -53 -56 -54 0
-326 -323 -325 53 56 -54 0
-326 -323 -325 -53 -56 -54 0
328 325 -53 0
328 -325 53 0
-328 325 53 0
-328 -325 -53 0
327 56 -54 0
327 -56 54 0
-327 56 54 0
-327 -56 -54 0
329 -326 328 0
329 -326 52 0
-329 326 328 0
-329 326 52 0
329 -326 51 -54 0
329 -326 -51 54 0
-329 326 51 -54 0
-329 326 -51 54 0
329 326 -328 51 54 -52 0
329 326 -328 -51 -54 -52 0
-329 -326 -328 51 54 -52 0
-329 -326 -328 -51 -54 -52 0
331 328 -51 0
331 -328 51 0
-331 328 51 0
-331 -328 -51 0
330 54 -52 0
330 -54 52 0
-330 54 52 0
-330 -54 -52 0
332 -329 331 0
332 -329 50 0
-332 329 331 0
-332 329 50 0
332 -329 49 -52 0
332 -329 -49 52 0
-332 329 49 -52 0
-332 329 -49 52 0
332 329 -331 49 52 -50 0
332 329 -331 -49 -52 -50 0
-332 -329 -331 49 52 -50 0
-332 -329 -331 -49 -52 -50 0
334 331 -49 0
334 -331 49 0
-334 331 49 0
-334 -331 -49 0
333 52 -50 0
333 -52 50 0
-333 52 50 0
-333 -52 -50 0
335 -332 334 0
335 -332 48 0
-335 332 334 0
-335 332 48 0
335 -332 47 -50 0
335 -332 -47 50 0
-335 332 47 -50 0
-335 332 -47 50 0
335 332 -334 47 50 -48 0
335 332 -334 -47 -50 -48 0
-335 -332 -334 47 50 -48 0
-335 -332 -334 -47 -50 -48 0
337 334 -47 0
337 -334 47 0
-337 334 47 0
-337 -334 -47 0
336 50 -48 0
336 -50 48 0
-336 50 48 0
-336 -50 -48 0
338 -335 337 0
338 -335 46 0
-338 335 337 0
-338 335 46 0
338 -335 45 -48 0
338 -335 -45 48 0
-338 335 45 -48 0
-338 335 -45 48 0
338 335 -337 45 48 -46 0
338 335 -337 -45 -48 -46 0
-338 -335 -337 45 48 -46 0
-338 -335 -337 -45 -48 -46 0
340 337 -45 0
340 -337 45 0
-340 337 45 0
-340 -337 -45 0
339 48 -46 0
339 -48 46 0
-339 48 46 0
-339 -48 -46 0
341 -338 340 0
341 -338 44 0
-341 338 340 0
-341 338 44 0
341 -338 43 -46 0
341 -338 -43 46 0
-341 338 43 -46 0
-341 338 -43 46 0
341 338 -340 43 46 -44 0
341 338 -340 -43 -46 -44 0
-341 -338 -340 43 46 -44 0
-341 -338 -340 -43 -46 -44 0
343 340 -43 0
343 -340 43 0
-343 340 43 0
-343 -340 -43 0
342 46 -44 0
342 -46 44 0
-342 46 44 0
-342 -46 -44 0
344 -341 343 0
344 -341 42 0
-344 341 343 0
-344 341 42 0
344 -341 41 -44 0
344 -341 -41 44 0
-344 341 41 -44 0
-344 341 -41 44 0
344 341 -343 41 44 -42 0
344 341 -343 -41 -44 -42 0
-344 -341 -343 41 44 -42 0
-344 -341 -343 -41 -44 -42 0
346 343 -41 0
346 -343 41 0
-346 343 41 0
-346 -343 -41 0
345 44 -42 0
345 -44 42 0
-345 44 42 0
-345 -44 -42 0
347 -344 346 0
347 -344 40 0
-347 344 346 0
-347 344 40 0
347 -344 39 -42 0
347 -344 -39 42 0
-347 344 39 -42 0
-347 344 -39 42 0
347 344 -346 39 42 -40 0
347 344 -346 -39 -42 -40 0
-347 -344 -346 39 42 -40 0
-347 -344 -346 -39 -42 -40 0
349 346 -39 0
349 -346 39 0
-349 346 39 0
-349 -346 -39 0
348 42 -40 0
348 -42 40 0
-348 42 40 0
-348 -42 -40 0
350 -347 349 0
350 -347 38 0
-350 347 349 0
-350 347 38 0
350 -347 37 -40 0
350 -347 -37 40 0
-350 347 37 -40 0
-350 347 -37 40 0
350 347 -349 37 40 -38 0
350 347 -349 -37 -40 -38 0
-350 -347 -349 37 40 -38 0
-350 -347 -349 -37 -40 -38 0
352 349 -37 0
352 -349 37 0
-352 349 37 0
-352 -349 -37 0
351 40 -38 0
351 -40 38 0
-351 40 38 0
-351 -40 -38 0
353 -350 352 0
353 -350 36 0
-353 350 352 0
-353 350 36 0
353 -350 35 -38 0
353 -350 -35 38 0
-353 350 35 -38 0
-353 350 -35 38 0
353 350 -352 35 38 -36 0
353 350 -352 -35 -38 -36 0
-353 -350 -352 35 38 -36 0
-353 -350 -352 -35 -38 -36 0
355 352 -35 0
355 -352 35 0
-355 352 35 0
-355 -352 -35 0
354 38 -36 0
354 -38 36 0
-354 38 36 0
-354 -38 -36 0
356 -353 355 0
356 -353 34 0
-356 353 355 0
-356 353 34 0
356 -353 33 -36 0
356 -353 -33 36 0
-356 353 33 -36 0
-356 353 -33 36 0
356 353 -355 33 36 -34 0
356 353 -355 -33 -36 -34 0
-356 -353 -355 33 36 -34 0
-356 -353 -355 -33 -36 -34 0
358 355 -33 0
358 -355 33 0
-358 355 33 0
-358 -355 -33 0
357 36 -34 0
357 -36 34 0
-357 36 34 0
-357 -36 -34 0
359 -356 358 0
359 -356 32 0
-359 356 358 0
-359 356 32 0
359 -356 31 -34 0
359 -356 -31 34 0
-359 356 31 -34 0
-359 356 -31 34 0
359 356 -358 31 34 -32 0
359 356 -358 -31 -34 -32 0
-359 -356 -358 31 34 -32 0
-359 -356 -358 -31 -34 -32 0
361 358 -31 0
361 -358 31 0
-361 358 31 0
-361 -358 -31 0
360 34 -32 0
360 -34 32 0
-360 34 32 0
-360 -34 -32 0
362 -359 361 0
362 -359 30 0
-362 359 361 0
-362 359 30 0
362 -359 29 -32 0
362 -359 -29 32 0
-362 359 29 -32 0
-362 359 -29 32 0
362 359 -361 29 32 -30 0
362 359 -361 -29 -32 -30 0
-362 -359 -361 29 32 -30 0
-362 -359 -361 -29 -32 -30 0
364 361 -29 0
364 -361 29 0
-364 361 29 0
-364 -361 -29 0
363 32 -30 0
363 -32 30 0
-363 32 30 0
-363 -32 -30 0
365 -362 364 0
365 -362 28 0
-365 362 364 0
-365 362 28 0
365 -362 27 -30 0
365 -362 -27 30 0
-365 362 27 -30 0
-365 362 -27 30 0
365 362 -364 27 30 -28 0
365 362 -364 -27 -30 -28 0
-365 -362 -364 27 30 -28 0
-365 -362 -364 -27 -30 -28 0
367 364 -27 0
367 -364 27 0
-367 364 27 0
-367 -364 -27 0
366 30 -28 0
366 -30 28 0
-366 30 28 0
-366 -30 -28 0
368 -365 367 0
368 -365 26 0
-368 365 367 0
-368 365 26 0
368 -365 25 -28 0
368 -365 -25 28 0
-368 365 25 -28 0
-368 365 -25 28 0
368 365 -367 25 28 -26 0
368 365 -367 -25 -28 -26 0
-368 -365 -367 25 28 -26 0
-368 -365 -367 -25 -28 -26 0
370 367 -25 0
370 -367 25 0
-370 367 25 0
-370 -367 -25 0
369 28 -26 0
369 -28 26 0
-369 28 26 0
-369 -28 -26 0
371 -368 370 0
371 -368 24 0
-371 368 370 0
-371 368 24 0
371 -368 23 -26 0
371 -368 -23 26 0
-371 368 23 -26 0
-371 368 -23 26 0
371 368 -370 23 26 -24 0
371 368 -370 -23 -26 -24 0
-371 -368 -370 23 26 -24 0
-371 -368 -370 -23 -26 -24 0
373 370 -23 0
373 -370 23 0
-373 370 23 0
-373 -370 -23 0
372 26 -24 0
372 -26 24 0
-372 26 24 0
-372 -26 -24 0
374 -371 373 0
374 -371 22 0
-374 371 373 0
-374 371 22 0
374 -371 21 -24 0
374 -371 -21 24 0
-374 371 21 -24 0
-374 371 -21 24 0
374 371 -373 21 24 -22 0
374 371 -373 -21 -24 -22 0
-374 -371 -373 21 24 -22 0
-374 -371 -373 -21 -24 -22 0
376 373 -21 0
376 -373 21 0
-376 373 21 0
-376 -373 -21 0
375 24 -22 0
375 -24 22 0
-375 24 22 0
-375 -24 -22 0
377 -374 376 0
377 -374 20 0
-377 374 376 0
-377 374 20 0
377 -374 19 -22 0
377 -374 -19 22 0
-377 374 19 -22 0
-377 374 -19 22 0
377 374 -376 19 22 -20 0
377 374 -376 -19 -22 -20 0
-377 -374 -376 19 22 -20 0
-377 -374 -376 -19 -22 -20 0
379 376 -19 0
379 -376 19 0
-379 376 19 0
-379 -376 -19 0
378 22 -20 0
378 -22 20 0
-378 22 20 0
-378 -22 -20 0
380 -377 379 0
380 -377 18 0
-380 377 379 0
-380 377 18 0
380 -377 17 -20 0
380 -377 -17 20 0
-380 377 17 -20 0
-380 377 -17 20 0
380 377 -379 17 20 -18 0
380 377 -379 -17 -20 -18 0
-380 -377 -379 17 20 -18 0
-380 -377 -379 -17 -20 -18 0
382 379 -17 0
382 -379 17 0
-382 379 17 0
-382 -379 -17 0
381 20 -18 0
381 -20 18 0
-381 20 18 0
-381 -20 -18 0
383 -380 382 0
383 -380 16 0
-383 380 382 0
-383 380 16 0
383 -380 15 -18 0
383 -380 -15 18 0
-383 380 15 -18 0
-383 380 -15 18 0
383 380 -382 15 18 -16 0
383 380 -382 -15 -18 -16 0
-383 -380 -382 15 18 -16 0
-383 -380 -382 -15 -18 -16 0
385 382 -15 0
385 -382 15 0
-385 382 15 0
-385 -382 -15 0
384 18 -16 0
384 -18 16 0
-384 18 16 0
-384 -18 -16 0
386 -383 385 0
386 -383 14 0
-386 383 385 0
-386 383 14 0
386 -383 13 -16 0
386 -383 -13 16 0
-386 383 13 -16 0
-386 383 -13 16 0
386 383 -385 13 16 -14 0
386 383 -385 -13 -16 -14 0
-386 -383 -385 13 16 -14 0
-386 -383 -385 -13 -16 -14 0
388 385 -13 0
388 -385 13 0
-388 385 13 0
-388 -385 -13 0
387 16 -14 0
387 -16 14 0
-387 16 14 0
-387 -16 -14 0
389 -386 388 0
389 -386 12 0
-389 386 388 0
-389 386 12 0
389 -386 11 -14 0
389 -386 -11 14 0
-389 386 11 -14 0
-389 386 -11 14 0
389 386 -388 11 14 -12 0
389 386 -388 -11 -14 -12 0
-389 -386 -388 11 14 -12 0
-389 -386 -388 -11 -14 -12 0
391 388 -11 0
391 -388 11 0
-391 388 11 0
-391 -388 -11 0
390 14 -12 0
390 -14 12 0
-390 14 12 0
-390 -14 -12 0
392 -389 391 0
392 -389 10 0
-392 389 391 0
-392 389 10 0
392 -389 9 -12 0
392 -389 -9 12 0
-392 389 9 -12 0
-392 389 -9 12 0
392 389 -391 9 12 -10 0
392 389 -391 -9 -12 -10 0
-392 -389 -391 9 12 -10 0
-392 -389 -391 -9 -12 -10 0
394 391 -9 0
394 -391 9 0
-394 391 9 0
-394 -391 -9 0
393 12 -10 0
393 -12 10 0
-393 12 10 0
-393 -12 -10 0
395 -392 394 0
395 -392 8 0
-395 392 394 0
-395 392 8 0
395 -392 7 -10 0
395 -392 -7 10 0
-395 392 7 -10 0
-395 392 -7 10 0
395 392 -394 7 10 -8 0
395 392 -394 -7 -10 -8 0
-395 -392 -394 7 10 -8 0
-395 -392 -394 -7 -10 -8 0
397 394 -7 0
397 -394 7 0
-397 394 7 0
-397 -394 -7 0
396 10 -8 0
396 -10 8 0
-396 10 8 0
-396 -10 -8 0
398 -395 397 0
398 -395 6 0
-398 395 397 0
-398 395 6 0
398 -395 5 -8 0
398 -395 -5 8 0
-398 395 5 -8 0
-398 395 -5 8 0
398 395 -397 5 8 -6 0
398 395 -397 -5 -8 -6 0
-398 -395 -397 5 8 -6 0
-398 -395 -397 -5 -8 -6 0
400 397 -5 0
400 -397 5 0
-400 397 5 0
-400 -397 -5 0
399 8 -6 0
399 -8 6 0
-399 8 6 0
-399 -8 -6 0
401 -398 400 0
401 -398 4 0
-401 398 400 0
-401 398 4 0
401 -398 3 -6 0
401 -398 -3 6 0
-401 398 3 -6 0
-401 398 -3 6 0
401 398 -400 3 6 -4 0
401 398 -400 -3 -6 -4 0
-401 -398 -400 3 6 -4 0
-401 -398 -400 -3 -6 -4 0
403 400 -3 0
403 -400 3 0
-403 400 3 0
-403 -400 -3 0
402 6 -4 0
402 -6 4 0
-402 6 4 0
-402 -6 -4 0
404 -401 403 0
404 -401 2 0
-404 401 403 0
-404 401 2 0
404 -401 1 -4 0
404 -401 -1 4 0
-404 401 1 -4 0
-404 401 -1 4 0
404 401 -403 1 4 -2 0
404 401 -403 -1 -4 -2 0
-404 -401 -403 1 4 -2 0
-404 -401 -403 -1 -4 -2 0
406 403 -1 0
406 -403 1 0
-406 403 1 0
-406 -403 -1 0
405 4 -2 0
405 -4 2 0
-405 4 2 0
-405 -4 -2 0
-406 0
-403 0
-405 0
-400 0
-402 0
-397 0
-399 0
-394 0
-396 0
-391 0
-393 0
-388 0
-390 0
-385 0
-387 0
-382 0
-384 0
-379 0
-381 0
-376 0
-378 0
-373 0
-375 0
-370 0
-372 0
-367 0
-369 0
-364 0
-366 0
-361 0
-363 0
-358 0
-360 0
-355 0
-357 0
-352 0
-354 0
-349 0
-351 0
-346 0
-348 0
-343 0
-345 0
-340 0
-342 0
-337 0
-339 0
-334 0
-336 0
-331 0
-333 0
-328 0
-330 0
-325 0
-327 0
-322 0
-324 0
-319 0
-321 0
-316 0
-318 0
-313 0
-315 0
-310 0
-312 0
-307 0
-309 0
-304 0
-306 0
-301 0
-303 0
-298 0
-300 0
-295 0
-297 0
-292 0
-294 0
-289 0
-291 0
-286 0
-288 0
-283 0
-285 0
-280 0
-282 0
-277 0
-279 0
-274 0
-276 0
-271 0
-273 0
-268 0
-270 0
-265 0
-267 0
-262 0
-264 0
-259 0
-261 0
-256 0
-258 0
-253 0
-255 0
-250 0
-252 0
-247 0
-249 0
-244 0
-246 0
-241 0
-243 0
-238 0
-240 0
-235 0
-237 0
-232 0
-234 0
-229 0
-231 0
-226 0
-228 0
-223 0
-225 0
-220 0
-222 0
-217 0
-219 0
-214 0
-216 0
-211 0
-213 0
-208 0
-210 0
-205 0
-207 0
-202 0
-204 0
-199 0
-201 0
-196 0
-198 0
-193 0
-195 0
-190 0
-192 0
-187 0
-189 0
-184 0
-186 0
-181 0
-183 0
-178 0
-180 0
-175 0
-177 0
-172 0
-174 0
-165 0
-171 0
